p cnf 48 206
1 9 5 13 0
17 25 21 29 0
2 10 6 14 0
18 26 22 30 0
3 11 7 15 0
19 27 23 31 0
4 12 8 16 0
20 28 24 32 0
-1 -5 0
-9 -13 0
-17 -21 0
-25 -29 0
-2 -6 0
-10 -14 0
-18 -22 0
-26 -30 0
-3 -7 0
-11 -15 0
-19 -23 0
-27 -31 0
-4 -8 0
-12 -16 0
-20 -24 0
-28 -32 0
-1 -9 0
-1 -13 0
-5 -9 0
-5 -13 0
-17 -25 0
-17 -29 0
-21 -25 0
-21 -29 0
-2 -10 0
-2 -14 0
-6 -10 0
-6 -14 0
-18 -26 0
-18 -30 0
-22 -26 0
-22 -30 0
-3 -11 0
-3 -15 0
-7 -11 0
-7 -15 0
-19 -27 0
-19 -31 0
-23 -27 0
-23 -31 0
-4 -12 0
-4 -16 0
-8 -12 0
-8 -16 0
-20 -28 0
-20 -32 0
-24 -28 0
-24 -32 0
1 2 3 4 0
5 6 7 8 0
9 10 11 12 0
13 14 15 16 0
17 18 19 20 0
21 22 23 24 0
25 26 27 28 0
29 30 31 32 0
-1 -2 0
-5 -6 0
-9 -10 0
-13 -14 0
-17 -18 0
-21 -22 0
-25 -26 0
-29 -30 0
33 -1 0
33 -5 0
-33 1 5 0
41 -17 0
41 -21 0
-41 17 21 0
37 -9 0
37 -13 0
-37 9 13 0
45 -25 0
45 -29 0
-45 25 29 0
34 -2 0
34 -6 0
-34 2 6 0
42 -18 0
42 -22 0
-42 18 22 0
38 -10 0
38 -14 0
-38 10 14 0
46 -26 0
46 -30 0
-46 26 30 0
35 -3 0
35 -7 0
-35 3 7 0
43 -19 0
43 -23 0
-43 19 23 0
39 -11 0
39 -15 0
-39 11 15 0
47 -27 0
47 -31 0
-47 27 31 0
36 -4 0
36 -8 0
-36 4 8 0
44 -20 0
44 -24 0
-44 20 24 0
40 -12 0
40 -16 0
-40 12 16 0
48 -28 0
48 -32 0
-48 28 32 0
-33 -34 -41 -42 0
-33 -34 -45 -46 0
-33 -35 -41 -43 0
-33 -35 -45 -47 0
-33 -36 -41 -44 0
-33 -36 -45 -48 0
-34 -35 -42 -43 0
-34 -35 -46 -47 0
-34 -36 -42 -44 0
-34 -36 -46 -48 0
-35 -36 -43 -44 0
-35 -36 -47 -48 0
-37 -38 -41 -42 0
-37 -38 -45 -46 0
-37 -39 -41 -43 0
-37 -39 -45 -47 0
-37 -40 -41 -44 0
-37 -40 -45 -48 0
-38 -39 -42 -43 0
-38 -39 -46 -47 0
-38 -40 -42 -44 0
-38 -40 -46 -48 0
-39 -40 -43 -44 0
-39 -40 -47 -48 0
-1 -5 0
-17 -21 0
-9 -13 0
-25 -29 0
-2 -5 0
-2 -6 0
-18 -21 0
-18 -22 0
-10 -13 0
-10 -14 0
-26 -29 0
-26 -30 0
-3 -5 0
-3 -6 0
-3 -7 0
-19 -21 0
-19 -22 0
-19 -23 0
-11 -13 0
-11 -14 0
-11 -15 0
-27 -29 0
-27 -30 0
-27 -31 0
-4 -5 0
-4 -6 0
-4 -7 0
-4 -8 0
-20 -21 0
-20 -22 0
-20 -23 0
-20 -24 0
-12 -13 0
-12 -14 0
-12 -15 0
-12 -16 0
-28 -29 0
-28 -30 0
-28 -31 0
-28 -32 0
-2 -9 0
-18 -25 0
-3 -9 0
-3 -10 0
-19 -25 0
-19 -26 0
-4 -9 0
-4 -10 0
-4 -11 0
-20 -25 0
-20 -26 0
-20 -27 0
-5 -21 0
-6 -21 0
-6 -22 0
-7 -21 0
-7 -22 0
-7 -23 0
-8 -21 0
-8 -22 0
-8 -23 0
-8 -24 0
